p cnf 92 313
-5 -3 0
-5 4 0
3 -4 5 0
-2 5 -6 0
2 -5 -6 0
-2 -5 6 0
2 5 6 0
-1 6 -7 0
1 -6 -7 0
-1 -6 7 0
1 6 7 0
-10 8 0
-10 9 0
-8 -9 10 0
11 -10 0
11 -10 0
10 -11 0
-13 -12 0
-13 9 0
12 -9 13 0
14 -3 0
14 -13 0
3 13 -14 0
9 -4 -15 0
-9 4 -15 0
9 4 15 0
-9 -4 15 0
16 14 0
16 15 0
-14 -15 -16 0
18 17 0
18 -13 0
-17 13 -18 0
18 3 -19 0
-18 -3 -19 0
18 -3 19 0
-18 3 19 0
20 -19 0
20 19 0
21 16 0
21 20 0
-16 -20 -21 0
-11 21 -22 0
11 -21 -22 0
-11 -21 22 0
11 21 22 0
23 7 0
23 22 0
-7 -22 -23 0
24 -15 0
24 -1 0
15 1 -24 0
23 -24 -25 0
-23 24 -25 0
23 24 25 0
-23 -24 25 0
26 27 -28 0
-26 -27 -28 0
26 -27 28 0
-26 27 28 0
-29 12 0
-29 -28 0
-12 28 29 0
-30 29 0
-30 15 0
-29 -15 30 0
-18 -31 -32 0
18 31 -32 0
-18 31 32 0
18 -31 32 0
-33 -32 0
-33 21 0
32 -21 33 0
33 -5 -34 0
-33 5 -34 0
33 5 34 0
-33 -5 34 0
-30 -34 -35 0
30 34 -35 0
-30 34 35 0
30 -34 35 0
36 15 0
36 -10 0
-15 10 -36 0
-35 -36 -37 0
35 36 -37 0
-35 36 37 0
35 -36 37 0
38 -25 0
38 37 0
25 -37 -38 0
41 40 0
41 1 0
-40 -1 -41 0
16 15 -42 0
-16 -15 -42 0
16 -15 42 0
-16 15 42 0
-43 -42 0
-43 -27 0
42 27 43 0
-44 -41 0
-44 -43 0
41 43 44 0
-45 44 0
-45 -17 0
-44 17 45 0
10 4 -46 0
-10 -4 -46 0
10 -4 46 0
-10 4 46 0
47 -14 0
47 -46 0
14 46 -47 0
-48 4 0
-48 47 0
-4 -47 48 0
1 -2 -49 0
-1 2 -49 0
1 2 49 0
-1 -2 49 0
50 -48 0
50 -49 0
48 49 -50 0
-51 45 0
-51 -50 0
-45 50 51 0
52 39 0
52 51 0
-39 -51 -52 0
53 -21 0
53 33 0
21 -33 -53 0
-54 4 0
-54 -18 0
-4 18 54 0
-55 54 0
-55 21 0
-54 -21 55 0
-56 -53 0
-56 -55 0
53 55 56 0
57 -52 0
57 56 0
52 -56 -57 0
38 57 -58 0
-38 -57 -58 0
38 -57 58 0
-38 57 58 0
59 19 0
59 -40 0
-19 40 -59 0
-60 -13 0
-60 -12 0
13 12 60 0
61 59 0
61 -60 0
-59 60 -61 0
12 -28 -62 0
-12 28 -62 0
12 28 62 0
-12 -28 62 0
-63 -61 0
-63 62 0
61 -62 63 0
64 -54 0
64 -20 0
54 20 -64 0
-65 33 0
-65 64 0
-33 -64 65 0
67 66 0
67 1 0
-66 -1 -67 0
-68 20 0
-68 -67 0
-20 67 68 0
69 -14 0
69 17 0
14 -17 -69 0
5 -69 -70 0
-5 69 -70 0
5 69 70 0
-5 -69 70 0
-71 70 0
-71 18 0
-70 -18 71 0
-31 -71 -72 0
31 71 -72 0
-31 71 72 0
31 -71 72 0
73 14 0
73 6 0
-14 -6 -73 0
4 60 -74 0
-4 -60 -74 0
4 -60 74 0
-4 60 74 0
-75 -74 0
-75 -40 0
74 40 75 0
76 -73 0
76 75 0
73 -75 -76 0
-72 -76 -77 0
72 76 -77 0
-72 76 77 0
72 -76 77 0
78 68 0
78 77 0
-68 -77 -78 0
-79 65 0
-79 -78 0
-65 78 79 0
-80 -63 0
-80 79 0
63 -79 80 0
-81 64 0
-81 -31 0
-64 31 81 0
-82 -81 0
-82 -5 0
81 5 82 0
-83 82 0
-83 -22 0
-82 22 83 0
20 59 -84 0
-20 -59 -84 0
20 -59 84 0
-20 59 84 0
-14 84 -85 0
14 -84 -85 0
-14 -84 85 0
14 84 85 0
-32 -10 -86 0
32 10 -86 0
-32 10 86 0
32 -10 86 0
85 86 -87 0
-85 -86 -87 0
85 -86 87 0
-85 86 87 0
88 83 0
88 87 0
-83 -87 -88 0
80 88 -89 0
-80 -88 -89 0
80 -88 89 0
-80 88 89 0
-58 -89 -90 0
58 89 -90 0
-58 89 90 0
58 -89 90 0
15 -5 -91 0
-15 5 -91 0
15 5 91 0
-15 -5 91 0
92 -90 0
92 91 0
90 -91 -92 0
-92 -44 72 0
3 -52 23 -30 56 0
53 -87 -47 78 0
-46 -29 0
82 -84 71 35 43 0
91 -24 0
33 50 -69 67 0
3 -67 -81 -30 0
32 41 -52 64 0
4 11 -60 -13 -32 31 0
11 -14 -15 67 46 72 0
19 81 0
20 -50 -13 -80 0
57 24 0
23 12 -28 57 -19 0
66 -14 19 -42 -4 0
-65 36 -49 30 0
88 67 -52 6 57 0
-92 57 0
77 -48 -17 -40 4 89 0
-61 -4 -19 0
-92 2 88 0
-3 28 0
-17 13 -61 85 62 32 0
20 -48 -9 89 0
31 71 29 -45 -55 0
-51 -4 31 48 23 -29 0
81 75 -86 -38 -22 71 0
-13 -29 61 47 38 -71 0
34 55 22 0
67 81 -12 0
24 12 -84 0
25 34 1 -91 22 92 0
36 -68 0
-10 87 0
81 16 -27 -29 -39 0
-85 48 -27 -49 -78 0
-29 77 88 -5 0
-31 -80 -47 0
68 -6 -74 0
39 -48 0
40 38 -30 27 0
-85 -75 -34 23 0
-51 44 31 -81 0
-29 -60 -58 0
36 69 22 0
48 22 -14 -58 38 61 0
-14 85 -81 -61 -71 -73 0
-38 -31 91 -23 28 -88 0
-87 -14 0
1 33 45 -7 0
-74 27 79 0
92 0
